
  22   10
  10   10   10   10   10   10   10   10   10   10

   0   0   0   0   0   0   0   0   0   0   0   2 2 14 
  10  10   0   0   0   0   0   0   0   0   0   1 3 
   9   0   0  10   0   0   0   0   0   0   0   1 4 
  10   0   0   0   0   0  10   0   0   0   0   1 5 
  10   0   0   0   0   0   0   0   0  10   0   1 6 
   9   0   0  10   0   0   0   0   0   0   0   1 7 
   1   0   0   0   0   0   0   0   0   0  10   1 8 
   4   0   0   0   0   0   0  10   0   0   0   1 9 
   1  10   0   0   0   0   0   0   0   0   0   1 10 
  10   0   0   0  10   0   0   0   0   0   0   1 11 
   4   0   0   0   0   0  10   0   0   0   0   1 12 
   6   0   0   0   0   0   0  10   0   0   0   1 13 
   2   0  10   0   0   0   0   0   0   0   0   1 15 
  10   0   0   0  10   0   0   0   0   0   0   1 15 
   9   0  10   0   0   0   0   0   0   0   0   2 18 16 
   9   0   0  10   0   0   0   0   0   0   0   1 17 
   1   0   0  10   0   0   0   0   0   0   0   1 19 
   9   0   0   0   0   0   0   0   0   0  10   1 19 
   7   0  10   0   0   0   0   0   0   0   0   1 20 
   6   0  10   0   0   0   0   0   0   0   0   1 21 
   8   0   0   0   0   0   0   0  10   0   0   1 22
   0   0   0   0   0   0   0   0   0   0   0   0 
